
Welcome to IBM(R) ILOG(R) CPLEX(R) Interactive Optimizer 22.1.1.0
  with Simplex, Mixed Integer & Barrier Optimizers
5725-A06 5725-A29 5724-Y48 5724-Y49 5724-Y54 5724-Y55 5655-Y21
Copyright IBM Corp. 1988, 2022.  All Rights Reserved.

Type 'help' for a list of available commands.
Type 'help' followed by a command name for more
information on commands.

CPLEX> Selected objective sense:  MINIMIZE
Selected objective  name:  00000000
Selected RHS        name:  RHS1
Selected bound      name:  BOUND
Problem 'ee.mps' read.
Read time = 0.03 sec. (3.14 ticks)
CPLEX> New value for time limit in seconds: 7200
CPLEX> New value for parallel optimization mode: -1
CPLEX> New value for default parallel thread count: 40
CPLEX> New value for mixed integer optimality gap tolerance: 1e-13
CPLEX> Version identifier: 22.1.1.0 | 2022-11-28 | 9160aff4d
CPXPARAM_Threads                                 40
CPXPARAM_Parallel                                -1
CPXPARAM_TimeLimit                               7200
CPXPARAM_MIP_Tolerances_MIPGap                   1e-13
Found incumbent of value 0.000000 after 0.00 sec. (0.31 ticks)
Tried aggregator 2 times.
MIP Presolve eliminated 180 rows and 2745 columns.
MIP Presolve modified 5862 coefficients.
Aggregator did 713 substitutions.
Reduced MIP has 3624 rows, 7739 columns, and 28645 nonzeros.
Reduced MIP has 7739 binaries, 0 generals, 0 SOSs, and 0 indicators.
Presolve time = 0.07 sec. (68.57 ticks)
Probing time = 0.03 sec. (5.89 ticks)
Tried aggregator 1 time.
Detecting symmetries...
Reduced MIP has 3624 rows, 7739 columns, and 28645 nonzeros.
Reduced MIP has 7739 binaries, 0 generals, 0 SOSs, and 0 indicators.
Presolve time = 0.03 sec. (21.83 ticks)
Probing time = 0.02 sec. (5.66 ticks)
Clique table members: 18552.
MIP emphasis: balance optimality and feasibility.
MIP search method: dynamic search.
Parallel mode: opportunistic, using up to 40 threads.
Root relaxation solution time = 0.09 sec. (81.04 ticks)

        Nodes                                         Cuts/
   Node  Left     Objective  IInf  Best Integer    Best Bound    ItCnt     Gap

*     0+    0                            0.0000  -1.31000e+13              --- 
*     0+    0                      -6.49000e+12  -1.31000e+13           101.85%
      0     0  -1.30900e+13    57  -6.49000e+12  -1.30900e+13     2167  101.69%
*     0+    0                      -1.30900e+13  -1.30900e+13             0.00%
*     0+    0                      -1.30900e+13  -1.30900e+13             0.00%
      0     0  -1.30900e+13   116  -1.30900e+13      Cuts: 48     2409    0.00%
*     0+    0                      -1.30900e+13  -1.30900e+13             0.00%
      0     0  -1.30900e+13   149  -1.30900e+13      Cuts: 43     2698    0.00%
*     0+    0                      -1.30900e+13  -1.30900e+13             0.00%

Repeating presolve.
Tried aggregator 4 times.
MIP Presolve eliminated 1448 rows and 3417 columns.
MIP Presolve added 18 rows and 0 columns.
MIP Presolve modified 95 coefficients.
Aggregator did 406 substitutions.
Reduced MIP has 1788 rows, 3884 columns, and 13597 nonzeros.
Reduced MIP has 3884 binaries, 0 generals, 0 SOSs, and 0 indicators.
Presolve time = 0.07 sec. (73.37 ticks)
Probing fixed 128 vars, tightened 0 bounds.
Probing time = 0.04 sec. (14.50 ticks)
Tried aggregator 2 times.
MIP Presolve eliminated 94 rows and 151 columns.
Aggregator did 37 substitutions.
Reduced MIP has 1657 rows, 3693 columns, and 12830 nonzeros.
Reduced MIP has 3693 binaries, 0 generals, 0 SOSs, and 0 indicators.
Presolve time = 0.02 sec. (20.85 ticks)
Probing time = 0.02 sec. (5.00 ticks)
Tried aggregator 1 time.
Detecting symmetries...
MIP Presolve eliminated 2 rows and 1 columns.
Reduced MIP has 1655 rows, 3692 columns, and 12824 nonzeros.
Reduced MIP has 3692 binaries, 0 generals, 0 SOSs, and 0 indicators.
Presolve time = 0.02 sec. (14.38 ticks)
Represolve time = 0.19 sec. (146.38 ticks)
Probing time = 0.03 sec. (8.33 ticks)
Clique table members: 8852.
MIP emphasis: balance optimality and feasibility.
MIP search method: dynamic search.
Parallel mode: opportunistic, using up to 40 threads.
Root relaxation solution time = 0.05 sec. (30.13 ticks)

        Nodes                                         Cuts/
   Node  Left     Objective  IInf  Best Integer    Best Bound    ItCnt     Gap

*     0+    0                      -1.30900e+13  -1.30900e+13             0.00%
      0     0  -1.30900e+13    89  -1.30900e+13  -1.30900e+13     3729    0.00%
      0     0  -1.30900e+13   138  -1.30900e+13      Cuts: 90     3894    0.00%
      0     0  -1.30900e+13   182  -1.30900e+13      Cuts: 75     4058    0.00%
      0     2  -1.30900e+13   166  -1.30900e+13  -1.30900e+13     4058    0.00%
Elapsed time = 2.05 sec. (1207.60 ticks, tree = 0.02 MB, solutions = 6)
    566    40  -1.30900e+13    69  -1.30900e+13  -1.30900e+13    66148    0.00%
   1120    19  -1.30900e+13     9  -1.30900e+13  -1.30900e+13    98812    0.00%

GUB cover cuts applied:  2
Clique cuts applied:  22
Cover cuts applied:  534
Flow cuts applied:  6
Mixed integer rounding cuts applied:  12
Zero-half cuts applied:  14
Lift and project cuts applied:  13
Gomory fractional cuts applied:  18

Root node processing (before b&c):
  Real time             =    1.64 sec. (1207.09 ticks)
Parallel b&c, 40 threads:
  Real time             =    1.33 sec. (583.35 ticks)
  Sync time (average)   =    0.55 sec.
  Wait time (average)   =    0.00 sec.
                          ------------
Total (root+branch&cut) =    2.97 sec. (1790.44 ticks)

Solution pool: 10 solutions saved.

MIP - Integer optimal solution:  Objective = -1.3089999591e+13
Solution time =    3.04 sec.  Iterations = 129576  Nodes = 1177
Deterministic time = 1790.47 ticks  (588.17 ticks/sec)

CPLEX> Solution 'p11' written to file 'ee.sol'.
CPLEX> 